0 26 39 9 32 44 3 0
0 53 14 59 66 65 11 0
0 52 27 13 57 15 29 45 0
0 61 22 64 42 43 41 56 23 0
0 12 58 10 31 38 7 0
0 67 8 35 19 54 46 34 0
0 17 51 33 63 1 62 6 0
0 40 50 25 55 18 24 49 16 0
0 30 47 36 69 60 20 37 5 0
0 68 2 28 21 48 4 0
